AES/1_5_4/ssaes_r1-20_c5_rw1_e4_f0_k1-20_aes_canon_box_aes_mc_bidirectional/ExperimentMinisat_r1_k17cnf_2011-10-29-160024/Result
WARNING: for repeatability, setting FPU to use double precision
============================[ Problem Statistics ]=============================
|                                                                             |
|  Number of variables:           244                                         |
|  Number of clauses:            1190                                         |
|  Parse time:                   0.00 s                                       |
|  Eliminated clauses:           0.00 Mb                                      |
|  Simplification time:          0.00 s                                       |
|                                                                             |
=============================[ Search Statistics ]==============================
| Conflicts  |          ORIGINAL         |          LEARNT          | Progress |
|            |    Vars  Clauses Literals |    Limit  Clauses Lit/Cl |          |
================================================================================
===============================================================================
restarts              : 1
conflicts             : 56             (28014 /sec)
decisions             : 78             (0.00 % random) (39020 /sec)
propagations          : 3035           (1518259 /sec)
conflict literals     : 313            (62.83 % deleted)
Memory used           : 8.00 MB
CPU time              : 0.001999 s

SATISFIABLE
